(set-logic ALL)
(declare-fun var0 () String)
(assert (str.in_re var0 (re.++ (re.+ (re.* (str.to_re "00"))) (re.++ (re.* (re.* (str.to_re "111"))) (re.union (re.union (str.to_re "22") (str.to_re "333")) (re.union (str.to_re "44") (str.to_re "5")))))))
(check-sat)